<number of tasks>
20


<number of equipment>
5


<cycle time>
1000


<investment costs>
1,16681
2,20256
3,6117
4,10685
5,21339


<task times>
1,202,193,-1,-1,184
2,270,219,331,-1,-1
3,274,234,-1,-1,201
4,274,147,325,-1,-1
5,251,201,358,-1,-1
6,286,262,-1,-1,227
7,-1,-1,-1,383,254
8,245,154,186,-1,-1
9,278,205,-1,-1,190
10,229,192,-1,-1,195
11,270,208,-1,-1,195
12,292,236,-1,-1,271
13,255,204,464,-1,-1
14,280,224,-1,-1,219
15,-1,-1,-1,207,168
16,229,219,332,-1,-1
17,-1,-1,-1,336,193
18,270,214,-1,-1,201
19,277,224,-1,-1,245
20,282,273,458,-1,-1


<precedence relations>
1,14
2,8
3,7
7,14
8,9
8,10
8,11
8,12
8,13
9,14
10,14
12,15
13,16
14,17
14,18
14,19
14,20


<task types>
1,3
2,2
3,3
4,2
5,2
6,3
7,1
8,2
9,3
10,3
11,3
12,3
13,2
14,3
15,1
16,2
17,1
18,3
19,3
20,2


<line depot>
1,4
2,0
3,3
4,1
5,1


<processing costs>
1,14400
2,14400
3,7200
4,7200
5,14400


<saving costs>
1,1668
2,2025
3,611
4,1068
5,2133


<end>
